1 -1 -2 0
1 -1 -3 0
1 -1 4 0
1 1 5 0
1 -6 -2 0
1 6 7 0
1 6 -1 0
1 -6 3 0
1 6 5 0
1 8 9 0
1 -8 10 0
1 8 2 0
1 -8 7 0
1 -8 -11 0
1 8 -12 0
1 -8 -3 0
1 -8 5 0
1 -10 9 0
1 10 13 0
1 -10 -11 0
1 10 -3 0
1 -7 -14 0
1 7 15 0
1 -7 -10 0
1 -7 6 0
1 -7 -16 0
1 -7 -17 0
1 7 -8 0
1 -7 5 0
1 5 18 0
1 5 -19 0
1 -5 -14 0
1 5 15 0
1 -5 10 0
1 5 -6 0
1 -5 7 0
1 -5 -16 0
1 -5 -20 0
1 5 -8 0
1 5 -1 0
1 -2 19 0
1 2 -21 0
1 2 -22 0
1 -2 6 0
1 -2 -23 0
1 -2 16 0
1 -2 -24 0
1 -2 -25 0
1 2 -8 0
1 2 1 0
1 2 -3 0
1 3 -19 0
1 -3 22 0
1 3 -10 0
1 3 2 0
1 3 16 0
1 3 24 0
1 3 8 0
1 -3 -26 0
1 17 9 0
1 -17 -15 0
1 17 -7 0
1 -17 -11 0
1 -17 -25 0
1 -17 5 0
1 15 13 0
1 -15 -22 0
1 -15 -11 0
1 -15 27 0
1 -15 -5 0
1 -20 9 0
1 20 13 0
1 20 14 0
1 20 -28 0
1 20 -29 0
1 -20 -7 0
1 20 -27 0
1 -20 30 0
1 -20 -24 0
1 20 5 0
1 -14 9 0
1 14 -13 0
1 -14 21 0
1 14 -29 0
1 14 -7 0
1 14 -11 0
1 14 -27 0
1 14 20 0
1 -14 30 0
1 14 -31 0
1 -14 -5 0
1 27 32 0
1 27 13 0
1 27 -15 0
1 -27 10 0
1 27 -33 0
1 27 34 0
1 27 20 0
1 27 17 0
1 27 -8 0
1 27 -35 0
1 -13 -36 0
1 13 32 0
1 13 37 0
1 -13 -14 0
1 13 -15 0
1 13 10 0
1 -13 34 0
1 13 38 0
1 13 27 0
1 -13 -17 0
1 -13 8 0
1 11 39 0
1 -11 -19 0
1 11 14 0
1 -11 -15 0
1 -11 33 0
1 11 40 0
1 11 41 0
1 11 16 0
1 11 -20 0
1 -9 -39 0
1 -9 42 0
1 9 -14 0
1 9 15 0
1 -9 40 0
1 9 16 0
1 -9 17 0
1 9 8 0
1 9 35 0
1 -38 32 0
1 -38 13 0
1 -38 27 0
1 38 -30 0
1 -38 -31 0
1 -32 -13 0
1 -32 19 0
1 -32 28 0
1 32 -38 0
1 32 -30 0
1 32 -31 0
1 34 36 0
1 -34 13 0
1 -34 -28 0
1 34 29 0
1 34 30 0
1 34 -31 0
1 36 39 0
1 -36 -13 0
1 -36 28 0
1 36 -34 0
1 -36 -27 0
1 -36 -31 0
1 31 36 0
1 31 32 0
1 -31 14 0
1 31 -29 0
1 31 43 0
1 -31 -38 0
1 31 -20 0
1 -31 -44 0
1 31 -45 0
1 29 14 0
1 -29 46 0
1 -29 43 0
1 -29 -34 0
1 -29 -38 0
1 -29 20 0
1 29 -31 0
1 30 36 0
1 -30 32 0
1 30 14 0
1 -30 -28 0
1 30 43 0
1 30 47 0
1 -30 33 0
1 30 34 0
1 -30 38 0
1 30 48 0
1 30 45 0
1 -30 49 0
1 -30 35 0
1 28 -36 0
1 -28 32 0
1 28 14 0
1 -28 -47 0
1 -28 -33 0
1 -28 34 0
1 -28 38 0
1 -28 -45 0
1 -28 -49 0
1 28 -35 0
1 -4 -50 0
1 -4 -51 0
1 4 1 0
1 -50 -52 0
1 50 53 0
1 -12 -52 0
1 12 -54 0
1 -12 55 0
1 12 -56 0
1 -12 57 0
1 -12 58 0
1 56 -52 0
1 56 -54 0
1 56 -55 0
1 56 10 0
1 -56 58 0
1 -56 -59 0
1 -56 -12 0
1 53 -60 0
1 -53 -22 0
1 -53 -56 0
1 -53 -50 0
1 53 57 0
1 53 -24 0
1 53 25 0
1 53 4 0
1 -57 -53 0
1 -57 21 0
1 57 -22 0
1 -57 50 0
1 -57 61 0
1 -57 24 0
1 -57 -25 0
1 57 -4 0
1 -52 62 0
1 52 51 0
1 -52 12 0
1 52 4 0
1 51 12 0
1 -51 -4 0
1 25 -54 0
1 25 -55 0
1 25 2 0
1 -25 -57 0
1 -25 -59 0
1 25 3 0
1 22 -54 0
1 22 -15 0
1 -22 -2 0
1 22 -58 0
1 22 -59 0
1 -22 -3 0
1 -24 21 0
1 -24 -55 0
1 24 -63 0
1 24 -64 0
1 24 -2 0
1 -24 -57 0
1 -24 -20 0
1 -24 -59 0
1 24 65 0
1 -24 -66 0
1 24 -3 0
1 -21 -59 0
1 21 -53 0
1 21 -14 0
1 21 54 0
1 21 55 0
1 -21 -64 0
1 21 -2 0
1 21 -58 0
1 21 24 0
1 -21 -66 0
1 -55 -67 0
1 55 59 0
1 55 39 0
1 55 21 0
1 55 -22 0
1 -55 -68 0
1 -55 56 0
1 -55 -69 0
1 -55 -40 0
1 -55 -16 0
1 55 24 0
1 55 -12 0
1 59 -67 0
1 59 -39 0
1 59 19 0
1 59 21 0
1 59 -56 0
1 -59 -69 0
1 -59 -40 0
1 -59 16 0
1 59 -70 0
1 59 25 0
1 59 12 0
1 54 -67 0
1 54 -21 0
1 -54 22 0
1 -54 56 0
1 -54 -58 0
1 54 25 0
1 54 12 0
1 58 -21 0
1 -58 -54 0
1 -58 22 0
1 -58 56 0
1 -58 -69 0
1 -58 -24 0
1 -58 -71 0
1 -58 -25 0
1 58 12 0
1 -16 -9 0
1 -16 19 0
1 16 55 0
1 -16 63 0
1 16 7 0
1 -16 -38 0
1 16 -59 0
1 -16 66 0
1 -16 3 0
1 16 -5 0
1 19 32 0
1 -19 -55 0
1 -19 2 0
1 -19 11 0
1 -19 16 0
1 -19 59 0
1 -19 -65 0
1 19 -66 0
1 -19 3 0
1 19 5 0
1 40 -9 0
1 40 39 0
1 40 72 0
1 40 11 0
1 -40 34 0
1 -40 -65 0
1 40 -26 0
1 39 -18 0
1 39 -9 0
1 39 -55 0
1 -39 -63 0
1 -39 -23 0
1 39 72 0
1 -39 -11 0
1 -39 -59 0
1 -39 65 0
1 39 66 0
1 39 -26 0
1 64 -21 0
1 64 73 0
1 -64 -40 0
1 64 16 0
1 64 -24 0
1 -64 -35 0
1 -66 39 0
1 66 -19 0
1 66 -21 0
1 66 -64 0
1 66 74 0
1 -66 47 0
1 -66 75 0
1 -66 35 0
1 -63 67 0
1 63 39 0
1 -63 -19 0
1 -63 21 0
1 63 -76 0
1 63 74 0
1 63 -77 0
1 63 40 0
1 63 -16 0
1 -63 65 0
1 63 78 0
1 -63 79 0
1 -65 67 0
1 -65 -63 0
1 65 77 0
1 65 -69 0
1 65 40 0
1 -65 -16 0
1 -65 24 0
1 -65 80 0
1 -33 9 0
1 33 64 0
1 -33 -23 0
1 33 69 0
1 -33 -11 0
1 -33 72 0
1 -33 -27 0
1 -33 66 0
1 33 -26 0
1 -35 67 0
1 -35 18 0
1 -35 28 0
1 -35 -64 0
1 -35 -23 0
1 35 -72 0
1 -35 -11 0
1 -35 -27 0
1 35 -30 0
1 35 -66 0
1 35 26 0
1 -47 -42 0
1 47 37 0
1 -47 28 0
1 47 64 0
1 47 -23 0
1 -47 -72 0
1 47 49 0
1 -47 26 0
1 49 -18 0
1 -49 42 0
1 -49 28 0
1 49 -64 0
1 -49 47 0
1 49 -23 0
1 -49 -72 0
1 -49 -41 0
1 -49 81 0
1 -49 30 0
1 49 -26 0
1 -72 18 0
1 72 -39 0
1 72 -82 0
1 -72 -83 0
1 72 -43 0
1 72 33 0
1 -72 7 0
1 -72 40 0
1 72 84 0
1 -72 -45 0
1 72 -35 0
1 18 39 0
1 18 -83 0
1 -18 43 0
1 18 -33 0
1 18 -72 0
1 18 -40 0
1 18 5 0
1 -18 85 0
1 18 45 0
1 23 74 0
1 -23 -2 0
1 -23 33 0
1 -23 85 0
1 23 86 0
1 -23 -26 0
1 23 -35 0
1 -26 -39 0
1 -26 -87 0
1 26 74 0
1 -26 47 0
1 26 23 0
1 26 -33 0
1 26 -40 0
1 26 3 0
1 -26 -85 0
1 -26 -78 0
1 -26 49 0
1 43 -18 0
1 -43 -42 0
1 -43 -28 0
1 -43 -29 0
1 43 -74 0
1 -43 41 0
1 43 81 0
1 -43 31 0
1 45 28 0
1 45 -43 0
1 45 -41 0
1 -45 -30 0
1 -45 31 0
1 83 18 0
1 -83 -42 0
1 83 -37 0
1 -83 84 0
1 83 -46 0
1 83 87 0
1 -83 -41 0
1 -83 -81 0
1 -83 -48 0
1 -84 18 0
1 -84 -42 0
1 -84 37 0
1 -84 72 0
1 84 -41 0
1 -84 81 0
1 84 48 0
1 84 -86 0
1 81 37 0
1 -81 -88 0
1 81 89 0
1 -81 43 0
1 81 47 0
1 -81 -27 0
1 -81 90 0
1 81 -45 0
1 81 -49 0
1 -37 13 0
1 37 -88 0
1 -37 89 0
1 -37 83 0
1 37 43 0
1 37 81 0
1 -37 90 0
1 -37 84 0
1 37 45 0
1 -41 82 0
1 41 83 0
1 -41 -47 0
1 -41 11 0
1 -41 -91 0
1 41 85 0
1 -41 -84 0
1 -41 -45 0
1 41 -49 0
1 42 9 0
1 42 92 0
1 -42 -82 0
1 42 -43 0
1 42 47 0
1 -42 41 0
1 42 91 0
1 -42 -85 0
1 -42 84 0
1 -42 45 0
1 89 -37 0
1 -89 93 0
1 -89 46 0
1 -89 82 0
1 -89 -48 0
1 -89 -81 0
1 -89 90 0
1 -89 44 0
1 90 37 0
1 90 -93 0
1 90 -46 0
1 90 81 0
1 -88 -46 0
1 88 94 0
1 88 -81 0
1 -88 -44 0
1 94 -93 0
1 -94 48 0
1 -94 44 0
1 -44 -88 0
1 -44 46 0
1 44 -83 0
1 44 31 0
1 -44 -84 0
1 -46 88 0
1 46 -89 0
1 -46 83 0
1 46 90 0
1 46 -84 0
1 46 44 0
1 -48 88 0
1 48 -93 0
1 -48 89 0
1 -48 83 0
1 48 94 0
1 48 -90 0
1 -48 -84 0
1 93 -89 0
1 93 48 0
1 93 94 0
1 -93 90 0
1 -69 -67 0
1 -69 -62 0
1 -69 55 0
1 69 63 0
1 -69 33 0
1 -69 -95 0
1 -69 -61 0
1 -69 58 0
1 67 62 0
1 -67 60 0
1 67 54 0
1 67 -55 0
1 67 69 0
1 -67 95 0
1 -67 -61 0
1 -67 59 0
1 67 -65 0
1 -67 -35 0
1 77 -62 0
1 77 95 0
1 -77 -71 0
1 -77 65 0
1 77 -79 0
1 79 -62 0
1 79 -60 0
1 79 96 0
1 -79 68 0
1 79 -63 0
1 79 77 0
1 -79 -95 0
1 -79 71 0
1 -79 -70 0
1 -79 -65 0
1 60 -67 0
1 60 -53 0
1 60 87 0
1 60 -74 0
1 -60 -77 0
1 -60 -69 0
1 60 -86 0
1 -60 78 0
1 61 60 0
1 -61 87 0
1 -61 -74 0
1 -61 69 0
1 61 -86 0
1 61 -79 0
1 -62 67 0
1 62 52 0
1 -62 -69 0
1 -62 95 0
1 62 79 0
1 -95 -67 0
1 -95 -62 0
1 -95 -77 0
1 95 51 0
1 95 -79 0
1 -74 60 0
1 -74 96 0
1 -74 68 0
1 -74 -63 0
1 74 43 0
1 -74 64 0
1 -74 23 0
1 74 61 0
1 74 70 0
1 -74 65 0
1 -74 -78 0
1 74 -26 0
1 78 -60 0
1 -78 96 0
1 -78 -63 0
1 78 66 0
1 -78 64 0
1 78 -74 0
1 78 -23 0
1 78 -61 0
1 -78 71 0
1 -78 45 0
1 78 -26 0
1 -87 -60 0
1 -87 80 0
1 -87 68 0
1 -87 83 0
1 -87 -73 0
1 87 23 0
1 87 -61 0
1 -87 -71 0
1 87 -86 0
1 -87 75 0
1 -87 -26 0
1 -86 -60 0
1 86 -96 0
1 86 87 0
1 -86 -73 0
1 86 61 0
1 86 -71 0
1 86 84 0
1 -86 -75 0
1 86 -26 0
1 -68 -70 0
1 -68 92 0
1 68 74 0
1 -68 91 0
1 -68 -85 0
1 -68 -86 0
1 68 78 0
1 70 92 0
1 -70 82 0
1 -70 87 0
1 70 77 0
1 70 91 0
1 70 59 0
1 70 -85 0
1 96 -54 0
1 96 -87 0
1 -96 -74 0
1 96 71 0
1 -96 86 0
1 96 -79 0
1 71 -96 0
1 71 -87 0
1 71 -74 0
1 -71 77 0
1 -71 86 0
1 71 -79 0
1 82 18 0
1 82 -42 0
1 -82 70 0
1 82 -89 0
1 -82 -68 0
1 -82 76 0
1 -82 -73 0
1 82 23 0
1 -82 -41 0
1 -82 -85 0
1 -82 75 0
1 82 26 0
1 85 18 0
1 85 42 0
1 85 -82 0
1 85 68 0
1 -85 -73 0
1 -85 -23 0
1 -85 72 0
1 -85 41 0
1 -85 70 0
1 -85 80 0
1 85 -75 0
1 -85 -26 0
1 -92 -42 0
1 -92 88 0
1 -92 -68 0
1 -92 -76 0
1 -92 -41 0
1 92 -91 0
1 -92 -70 0
1 -92 -80 0
1 92 75 0
1 -91 42 0
1 91 68 0
1 91 76 0
1 91 -73 0
1 -91 -41 0
1 -91 94 0
1 91 80 0
1 91 -75 0
1 73 82 0
1 73 87 0
1 73 -64 0
1 -73 91 0
1 -73 -85 0
1 -75 -92 0
1 -75 87 0
1 75 -73 0
1 75 86 0
1 -75 66 0
1 76 92 0
1 -76 -80 0
1 76 -82 0
1 -76 63 0
1 -76 -87 0
1 76 -85 0
1 76 -86 0
1 80 87 0
1 80 91 0
1 -80 -85 0
1 -80 86 0
